% File represents an instance of a Composite Structure problem to be solved by a CP framework
% Created on 2025-03-25 14:06:12.911
T = 58;
n = 25;
m = 40;
edges = [(2, 1),
(7, 6),
(12, 11),
(16, 17),
(21, 22),
(3, 2),
(7, 8),
(13, 12),
(18, 17),
(22, 23),
(3, 4),
(9, 8),
(14, 13),
(19, 18),
(24, 23),
(5, 4),
(9, 10),
(14, 15),
(20, 19),
(25, 24),
(1, 6),
(11, 6),
(16, 11),
(21, 16),
(2, 7),
(12, 7),
(12, 17),
(22, 17),
(3, 8),
(13, 8),
(13, 18),
(18, 23),
(9, 4),
(14, 9),
(14, 19),
(19, 24),
(5, 10),
(15, 10),
(20, 15),
(20, 25)];
counts = [|16, 8, 10, 12,
|18, 12, 10, 16,
|20, 12, 10, 16,
|18, 10, 8, 12,
|18, 10, 8, 20,
|16, 6, 10, 8,
|18, 10, 10, 12,
|18, 10, 10, 10,
|18, 10, 10, 12,
|18, 10, 8, 12,
|16, 8, 10, 8,
|18, 10, 12, 12,
|18, 10, 14, 12,
|18, 10, 16, 12,
|18, 10, 10, 12,
|16, 8, 14, 8,
|14, 8, 12, 8,
|16, 8, 12, 12,
|16, 8, 16, 12,
|18, 10, 16, 12,
|16, 10, 16, 8,
|16, 10, 14, 8,
|16, 6, 12, 4,
|16, 6, 16, 4,
|16, 8, 16, 8|];
